56117
44, 8, 38, 35, 5, 13, 43, 40, 51, 37, 7, 20, 50, 24, 41, 19, 48, 17, 53, 34, 54, 47, 30, 4, 18, 12, 9, 14, 2, 52, 25, 31, 11, 45, 42, 33, 27, 1, 36, 46, 39, 15, 16, 10, 22, 29, 21, 23, 49, 26, 55, 28, 6, 3, 32
